# Cost: 599

# Tail Head Net
 40  41 1
 41  42 1
 42  43 1
 43  44 1
 44  45 1
 45  46 1
 46  47 1
 47  48 1
 48  49 1
 49  50 1
 50  51 1
 51  52 1
 52  53 1
 53  54 1
 54  55 1
 55  56 1
 56  57 1
 57 117 1
117 177 1
177 237 1
237 297 1
297 298 1
298 299 1
299 359 1
359 360 1
360 420 1
420 480 1
480 540 1
540 600 1
600 660 1
660 720 1
720 780 1
780 840 1
840 900 1
900 960 1
960 1020 1
1020 1080 1
1080 1140 1
1140 1200 1
1200 1260 1
1260 1320 1
1320 1380 1
1380 1440 1
1440 1500 1
1500 1560 1
2100 2040 2
2160 2100 2
2220 2160 2
2280 2220 2
2340 2280 2
2400 2340 2
2408 2468 2
2409 2408 2
2410 2409 2
2411 2410 2
2412 2411 2
2413 2412 2
2414 2413 2
2415 2414 2
2416 2415 2
2417 2416 2
2418 2417 2
2419 2418 2
2420 2419 2
2421 2420 2
2422 2421 2
2423 2422 2
2424 2423 2
2425 2424 2
2426 2425 2
2427 2426 2
2428 2427 2
2429 2428 2
2430 2429 2
2431 2430 2
2432 2431 2
2433 2432 2
2434 2433 2
2435 2434 2
2436 2435 2
2437 2436 2
2438 2437 2
2439 2438 2
2440 2439 2
2441 2440 2
2442 2441 2
2443 2442 2
2444 2443 2
2445 2444 2
2446 2445 2
2447 2446 2
2448 2447 2
2449 2448 2
2450 2449 2
2451 2450 2
2452 2451 2
2453 2452 2
2454 2453 2
2455 2454 2
2456 2455 2
2457 2456 2
2458 2457 2
2459 2458 2
2460 2400 2
2460 2459 2
2468 2528 2
2528 2588 2
2588 2648 2
2648 2708 2
2708 2768 2
2768 2828 2
2828 2888 2
2888 2948 2
2948 3008 2
3008 3068 2
3068 3128 2
3128 3188 2
3188 3248 2
3248 3308 2
3308 3368 2
3368 3428 2
3428 3488 2
3488 3548 2
3121 3122 3
3122 3123 3
3123 3124 3
3124 3125 3
3125 3126 3
3126 6726 3
6726 6727 3
6727 6728 3
6728 6729 3
6729 6730 3
6730 6731 3
6731 6732 3
6732 6733 3
6733 6793 3
6793 6794 3
6794 6854 3
3255 3315 3
6854 6855 3
3315 3316 3
6855 3255 3
3316 3376 3
3376 3377 3
3377 3437 3
3437 3438 3
3438 3439 3
3439 3440 3
3440 3441 3
3441 3442 3
3442 3443 3
3443 3444 3
3444 3504 3
3504 3505 3
3505 3565 3
3565 3566 3
3566 3567 3
3567 3568 3
3568 3569 3
3569 3570 3
3542 3541 4
3543 3542 4
3544 3543 4
3545 3544 4
3546 3545 4
3571 7171 4
3572 3571 4
3573 3572 4
3574 3573 4
3575 3574 4
3576 3575 4
3577 3576 4
3578 3577 4
3579 3578 4
7146 3546 4
7147 7146 4
7148 7147 4
7149 7148 4
7150 7149 4
7151 7150 4
7152 7151 4
7153 7152 4
7154 7153 4
7155 7154 4
7156 7155 4
7157 7156 4
7158 7157 4
7159 7158 4
7160 7159 4
7161 7160 4
7162 7161 4
7163 7162 4
7164 7163 4
7165 7164 4
7166 7165 4
7167 7166 4
7168 7167 4
7169 7168 4
7170 7169 4
7171 7170 4
3841 241 5
3901 3841 5
3961 3901 5
4021 3961 5
4081 4021 5
4141 4081 5
4201 4141 5
4261 4201 5
4321 4261 5
4381 4321 5
4441 4381 5
4501 4441 5
4561 4501 5
4621 4561 5
4681 4621 5
4741 4681 5
4801 4741 5
4861 4801 5
4921 4861 5
4981 4921 5
5041 4981 5
5101 5041 5
5161 5101 5
5221 5161 5
5281 5221 5
5341 5281 5
5401 5341 5
5461 5401 5
5521 5461 5
5581 5521 5
5641 5581 5
5701 5641 5
5761 5701 5
5821 5761 5
5881 5821 5
5941 5881 5
6001 5941 5
6061 6001 5
6121 6061 5
6181 6121 5
6241 6181 5
6301 6241 5
6361 6301 5
6421 6361 5
6481 6421 5
6541 6481 5
6601 6541 5
6661 6601 5
6721 6661 5
6781 6721 5
6841 6781 5
6901 6841 5
6961 6901 5
7021 6961 5
7081 7021 5
7082 7081 5
7083 7082 5
7084 7083 5
7085 7084 5
7086 7085 5
7087 7086 5
7088 7087 5
7089 7088 5
7090 7089 5
7091 7090 5
7092 7091 5
7093 7092 5
7094 7093 5
7095 7094 5
7096 7095 5
7097 7096 5
7098 7097 5
7099 7098 5
7100 7099 5
7101 7100 5
7102 7101 5
7103 7102 5
7104 7103 5
7105 7104 5
7106 7105 5
7107 7106 5
7108 7107 5
7109 7108 5
7110 7109 5
7111 7110 5
7112 7111 5
3582 7182 5
7172 7112 5
7173 7172 5
7174 7173 5
7175 7174 5
7176 7175 5
7177 7176 5
7178 7177 5
7179 7178 5
7180 7179 5
7181 7180 5
7182 7181 5
3060 3120 6
3120 3180 6
3180 3240 6
3240 3300 6
3300 3360 6
3360 3420 6
1921 1981 7
1981 2041 7
2041 2101 7
2101 2161 7
2161 2221 7
2221 2281 7
2281 2341 7
2341 2401 7
2401 2461 7
2461 2521 7
2521 2581 7
2581 2641 7
2641 2642 7
2642 6242 7
6242 6302 7
6302 6362 7
6362 6363 7
6363 6364 7
6364 6365 7
6365 6366 7
6366 6367 7
6367 6368 7
6368 6428 7
6428 6488 7
2889 2890 7
2890 2891 7
2891 2892 7
2892 2893 7
2893 2953 7
6488 6489 7
6489 2889 7
2953 2954 7
2954 3014 7
3014 3074 7
3074 3134 7
3134 3194 7
3194 3254 7
3254 3314 7
3314 3374 7
3374 3434 7
3434 3435 7
3435 3436 7
3436 3496 7
3496 3556 7
3556 3557 7
3557 3558 7
1681 1621 8
1741 1681 8
1801 1741 8
1861 1801 8
1862 1861 8
1922 1862 8
1982 1922 8
2042 1982 8
2102 2042 8
2162 2102 8
2222 2162 8
2282 2222 8
2342 2282 8
2402 2342 8
2462 2402 8
2522 2462 8
2582 2522 8
6182 2582 8
6183 6182 8
6184 6183 8
6185 6184 8
2649 6249 8
2650 2649 8
2651 2650 8
2652 2651 8
2653 2652 8
2654 2653 8
2655 2654 8
2656 2655 8
2657 2656 8
2658 2657 8
2659 2658 8
2660 2659 8
2661 2660 8
2662 2661 8
2663 2662 8
2664 2663 8
2665 2664 8
2666 2665 8
2667 2666 8
2668 2667 8
2669 2668 8
2670 2669 8
2671 2670 8
2672 2671 8
2673 2672 8
2674 2673 8
2675 2674 8
2676 2675 8
2677 2676 8
2678 2677 8
2679 2678 8
2680 2679 8
2681 2680 8
2682 2681 8
2683 2682 8
2684 2683 8
2685 2684 8
2686 2685 8
2687 2686 8
2688 2687 8
2689 2688 8
2690 2689 8
2691 2690 8
2692 2691 8
2693 2692 8
2694 2693 8
2695 2694 8
2696 2695 8
2697 2696 8
2698 2697 8
2699 2698 8
2700 2699 8
6245 6185 8
6246 6245 8
6247 6246 8
6248 6247 8
6249 6248 8
1441 1381 9
1501 1441 9
1502 1501 9
1562 1502 9
1622 1562 9
1682 1622 9
1742 1682 9
1743 1742 9
1803 1743 9
1863 1803 9
1923 1863 9
1983 1923 9
2043 1983 9
2103 2043 9
2163 2103 9
2223 2163 9
2224 2223 9
2284 2224 9
2285 2284 9
2345 2285 9
2346 2345 9
2347 2346 9
5947 2347 9
6007 5947 9
6008 6007 9
6068 6008 9
6069 6068 9
6129 6069 9
6189 6129 9
6190 6189 9
6250 6190 9
6251 6250 9
6311 6251 9
6371 6311 9
6372 6371 9
6373 6372 9
6433 6373 9
6493 6433 9
6553 6493 9
3073 6673 9
6613 6553 9
3133 3073 9
6673 6613 9
3193 3133 9
3253 3193 9
3313 3253 9
3373 3313 9
3433 3373 9
3493 3433 9
3553 3493 9
661 601 10
721 661 10
781 721 10
841 781 10
901 841 10
961 901 10
1021 961 10
1081 1021 10
1141 1081 10
1201 1141 10
1261 1201 10
1321 1261 10
1322 1321 10
1382 1322 10
1442 1382 10
5042 1442 10
5102 5042 10
5162 5102 10
5222 5162 10
5282 5222 10
5342 5282 10
5402 5342 10
5462 5402 10
5522 5462 10
5582 5522 10
5642 5582 10
5702 5642 10
5762 5702 10
5822 5762 10
5882 5822 10
5883 5882 10
5884 5883 10
5885 5884 10
5886 5885 10
5887 5886 10
5888 5887 10
5948 5888 10
5949 5948 10
6009 5949 10
6010 6009 10
2530 6130 10
6070 6010 10
2531 2530 10
2532 2531 10
2533 2532 10
2534 2533 10
2535 2534 10
2536 2535 10
2537 2536 10
2538 2537 10
2539 2538 10
2540 2539 10
2541 2540 10
2542 2541 10
2543 2542 10
2544 2543 10
2545 2544 10
2546 2545 10
2547 2546 10
2548 2547 10
2549 2548 10
2550 2549 10
2551 2550 10
2552 2551 10
2553 2552 10
2554 2553 10
2555 2554 10
2556 2555 10
2557 2556 10
2558 2557 10
2559 2558 10
2560 2559 10
2561 2560 10
2562 2561 10
2563 2562 10
2564 2563 10
2565 2564 10
2566 2565 10
2567 2566 10
2568 2567 10
2569 2568 10
2570 2569 10
2571 2570 10
2572 2571 10
2573 2572 10
2574 2573 10
2575 2574 10
2576 2575 10
2577 2576 10
2578 2577 10
2579 2578 10
2580 2579 10
6130 6070 10
  2  62 11
 61 121 11
  3   2 11
 62  61 11
  4   3 11
  5   4 11
  6   5 11
  7   6 11
  8   7 11
  9   8 11
 10   9 11
 11  10 11
 12  11 11
 13  12 11
 14  13 11
 15  14 11
 16  15 11
 17  16 11
 18  17 11
 19  18 11
 20  19 11
 21  20 11
 22  21 11
 23  22 11
 24  23 11
 25  24 11
 26  25 11
